NAME: sphere_rect_cap_reg_nol_10x1
COMMENT: type = rectangular_cap, neigh_ang = 0.0872664625997, neigh_size = 10
COMMENT: sphere_limit = 1.0471975512, rect_limit = [-1.0471975512, 0.785398163397, -0.785398163397, 1.0471975512]
TYPE: GTSP
DIMENSION: 10
GTSP_SETS: 10
EDGE_WEIGHT_TYPE: GEOM
NODE_COORD_SECTION:
1 48.6917696247 41.2305771549
2 -3.8315225254 31.5153700021
3 -56.3548146755 22.7284225975
4 28.6296572244 17.1847959011
5 -23.8936349257 9.15413328464
6 8.56754482411 -3.90956352466
7 -43.955747326 -11.8028916903
8 41.0287245739 -17.1847959011
9 -11.4945675762 -25.5830019774
10 20.9666121736 -41.2305771549
GTSP_SET_SECTION:
1 1 -1
2 2 -1
3 3 -1
4 4 -1
5 5 -1
6 6 -1
7 7 -1
8 8 -1
9 9 -1
10 10 -1
EOF
